p cnf 666 1860
37 0
-38 -26 0
-38 26 -25 0
-38 -25 0
-39 -27 0
-39 27 38 0
-39 38 0
-40 -28 0
-40 28 39 0
-40 39 0
-41 -29 0
-41 29 40 0
-41 40 0
-42 -30 0
-42 30 41 0
-42 41 0
-43 25 0
-44 -26 -25 0
-44 26 43 0
-44 -25 43 0
-45 -27 38 0
-45 27 44 0
-45 38 44 0
-46 -28 39 0
-46 28 45 0
-46 39 45 0
-47 -29 40 0
-47 29 46 0
-47 40 46 0
-48 -30 41 0
-48 30 47 0
-48 41 47 0
-49 -31 42 0
-49 31 48 0
-49 42 48 0
-50 -26 43 0
-50 26 0
-50 43 0
-51 -27 44 0
-51 27 50 0
-51 44 50 0
-52 -28 45 0
-52 28 51 0
-52 45 51 0
-53 -29 46 0
-53 29 52 0
-53 46 52 0
-54 -30 47 0
-54 30 53 0
-54 47 53 0
-55 -31 48 0
-55 31 54 0
-55 48 54 0
-56 -32 49 0
-56 32 55 0
-56 49 55 0
-57 -27 50 0
-57 27 0
-57 50 0
-58 -28 51 0
-58 28 57 0
-58 51 57 0
-59 -29 52 0
-59 29 58 0
-59 52 58 0
-60 -30 53 0
-60 30 59 0
-60 53 59 0
-61 -31 54 0
-61 31 60 0
-61 54 60 0
-62 -32 55 0
-62 32 61 0
-62 55 61 0
-63 -33 56 0
-63 33 62 0
-63 56 62 0
-64 -28 57 0
-64 28 0
-64 57 0
-65 -29 58 0
-65 29 64 0
-65 58 64 0
-66 -30 59 0
-66 30 65 0
-66 59 65 0
-67 -31 60 0
-67 31 66 0
-67 60 66 0
-68 -32 61 0
-68 32 67 0
-68 61 67 0
-69 -33 62 0
-69 33 68 0
-69 62 68 0
-70 -34 63 0
-70 34 69 0
-70 63 69 0
-71 -29 64 0
-71 29 0
-71 64 0
-72 -30 65 0
-72 30 71 0
-72 65 71 0
-73 -31 66 0
-73 31 72 0
-73 66 72 0
-74 -32 67 0
-74 32 73 0
-74 67 73 0
-75 -33 68 0
-75 33 74 0
-75 68 74 0
-76 -34 69 0
-76 34 75 0
-76 69 75 0
-77 -35 70 0
-77 35 76 0
-77 70 76 0
-78 -30 71 0
-78 30 0
-78 71 0
-79 -31 72 0
-79 31 78 0
-79 72 78 0
-80 -32 73 0
-80 32 79 0
-80 73 79 0
-81 -33 74 0
-81 33 80 0
-81 74 80 0
-82 -34 75 0
-82 34 81 0
-82 75 81 0
-83 -35 76 0
-83 35 82 0
-83 76 82 0
-84 -36 77 0
-84 36 83 0
-84 77 83 0
84 0
85 0
-86 -26 0
-86 26 -25 0
-86 -25 0
-87 -27 0
-87 27 86 0
-87 86 0
-88 -28 0
-88 28 87 0
-88 87 0
-89 25 0
-90 -26 0
-90 26 89 0
-90 89 0
-91 -27 0
-91 27 90 0
-91 90 0
-92 -26 -25 0
-92 26 0
-92 -25 0
-93 -27 92 0
-93 27 0
-93 92 0
-94 -28 91 0
-94 28 93 0
-94 91 93 0
-95 -29 88 0
-95 29 94 0
-95 88 94 0
-96 -30 0
-96 30 95 0
-96 95 0
-97 -31 0
-97 31 96 0
-97 96 0
-98 -32 0
-98 32 97 0
-98 97 0
-99 -33 0
-99 33 98 0
-99 98 0
-100 -29 0
-100 29 88 0
-100 88 0
-101 -28 0
-101 28 91 0
-101 91 0
-102 -27 0
-102 27 92 0
-102 92 0
-103 -26 89 0
-103 26 0
-103 89 0
-104 -27 103 0
-104 27 0
-104 103 0
-105 -28 102 0
-105 28 104 0
-105 102 104 0
-106 -29 101 0
-106 29 105 0
-106 101 105 0
-107 -30 100 0
-107 30 106 0
-107 100 106 0
-108 -31 0
-108 31 107 0
-108 107 0
-109 -32 0
-109 32 108 0
-109 108 0
-110 -30 0
-110 30 100 0
-110 100 0
-111 -29 0
-111 29 101 0
-111 101 0
-112 -28 0
-112 28 102 0
-112 102 0
-113 -27 86 0
-113 27 103 0
-113 86 103 0
-114 -28 113 0
-114 28 0
-114 113 0
-115 -29 112 0
-115 29 114 0
-115 112 114 0
-116 -30 111 0
-116 30 115 0
-116 111 115 0
-117 -31 110 0
-117 31 116 0
-117 110 116 0
-118 -29 0
-118 29 112 0
-118 112 0
-119 -28 0
-119 28 113 0
-119 113 0
-120 -27 90 0
-120 27 0
-120 90 0
-121 -28 120 0
-121 28 0
-121 120 0
-122 -29 119 0
-122 29 121 0
-122 119 121 0
-123 -30 118 0
-123 30 122 0
-123 118 122 0
-124 -28 87 0
-124 28 120 0
-124 87 120 0
-125 -28 93 0
-125 28 0
-125 93 0
-126 -29 124 0
-126 29 125 0
-126 124 125 0
-127 -28 104 0
-127 28 0
-127 104 0
-128 -29 127 0
-128 29 0
-128 127 0
-129 -30 126 0
-129 30 128 0
-129 126 128 0
-130 -31 123 0
-130 31 129 0
-130 123 129 0
-131 -32 117 0
-131 32 130 0
-131 117 130 0
-132 -33 109 0
-132 33 131 0
-132 109 131 0
-133 -34 99 0
-133 34 132 0
-133 99 132 0
-134 -32 0
-134 32 117 0
-134 117 0
-135 -30 0
-135 30 111 0
-135 111 0
-136 -31 135 0
-136 31 123 0
-136 135 123 0
-137 -29 0
-137 29 119 0
-137 119 0
-138 -30 137 0
-138 30 126 0
-138 137 126 0
-139 -29 94 0
-139 29 127 0
-139 94 127 0
-140 -30 139 0
-140 30 0
-140 139 0
-141 -31 138 0
-141 31 140 0
-141 138 140 0
-142 -32 136 0
-142 32 141 0
-142 136 141 0
-143 -33 134 0
-143 33 142 0
-143 134 142 0
-144 -30 0
-144 30 118 0
-144 118 0
-145 -31 144 0
-145 31 138 0
-145 144 138 0
-146 -29 0
-146 29 124 0
-146 124 0
-147 -30 146 0
-147 30 139 0
-147 146 139 0
-148 -29 105 0
-148 29 0
-148 105 0
-149 -30 148 0
-149 30 0
-149 148 0
-150 -31 147 0
-150 31 149 0
-150 147 149 0
-151 -32 145 0
-151 32 150 0
-151 145 150 0
-152 -30 95 0
-152 30 148 0
-152 95 148 0
-153 -29 114 0
-153 29 0
-153 114 0
-154 -30 153 0
-154 30 0
-154 153 0
-155 -31 152 0
-155 31 154 0
-155 152 154 0
-156 -29 121 0
-156 29 0
-156 121 0
-157 -30 156 0
-157 30 0
-157 156 0
-158 -31 157 0
-158 31 0
-158 157 0
-159 -32 155 0
-159 32 158 0
-159 155 158 0
-160 -33 151 0
-160 33 159 0
-160 151 159 0
-161 -34 143 0
-161 34 160 0
-161 143 160 0
-162 -35 133 0
-162 35 161 0
-162 133 161 0
-163 -31 0
-163 31 110 0
-163 110 0
-164 -32 163 0
-164 32 136 0
-164 163 136 0
-165 -33 164 0
-165 33 151 0
-165 164 151 0
-166 -30 0
-166 30 137 0
-166 137 0
-167 -31 166 0
-167 31 147 0
-167 166 147 0
-168 -32 167 0
-168 32 155 0
-168 167 155 0
-169 -30 106 0
-169 30 153 0
-169 106 153 0
-170 -31 169 0
-170 31 157 0
-170 169 157 0
-171 -29 125 0
-171 29 0
-171 125 0
-172 -30 171 0
-172 30 0
-172 171 0
-173 -31 172 0
-173 31 0
-173 172 0
-174 -32 170 0
-174 32 173 0
-174 170 173 0
-175 -33 168 0
-175 33 174 0
-175 168 174 0
-176 -34 165 0
-176 34 175 0
-176 165 175 0
-177 -30 0
-177 30 146 0
-177 146 0
-178 -31 177 0
-178 31 152 0
-178 177 152 0
-179 -32 178 0
-179 32 170 0
-179 178 170 0
-180 -30 115 0
-180 30 156 0
-180 115 156 0
-181 -31 180 0
-181 31 172 0
-181 180 172 0
-182 -30 128 0
-182 30 0
-182 128 0
-183 -31 182 0
-183 31 0
-183 182 0
-184 -32 181 0
-184 32 183 0
-184 181 183 0
-185 -33 179 0
-185 33 184 0
-185 179 184 0
-186 -30 122 0
-186 30 171 0
-186 122 171 0
-187 -31 186 0
-187 31 182 0
-187 186 182 0
-188 -32 187 0
-188 32 0
-188 187 0
-189 -33 188 0
-189 33 0
-189 188 0
-190 -34 185 0
-190 34 189 0
-190 185 189 0
-191 -35 176 0
-191 35 190 0
-191 176 190 0
-192 -36 162 0
-192 36 191 0
-192 162 191 0
192 0
193 0
-194 -26 -25 0
-194 26 0
-194 -25 0
-195 -27 0
-195 27 194 0
-195 194 0
-196 -28 0
-196 28 195 0
-196 195 0
-197 -29 0
-197 29 196 0
-197 196 0
-198 -30 0
-198 30 197 0
-198 197 0
-199 -31 0
-199 31 198 0
-199 198 0
-200 -32 199 0
-200 32 0
-200 199 0
-201 -33 0
-201 33 200 0
-201 200 0
-202 -27 194 0
-202 27 0
-202 194 0
-203 -28 0
-203 28 202 0
-203 202 0
-204 -29 203 0
-204 29 0
-204 203 0
-205 -30 0
-205 30 204 0
-205 204 0
-206 25 0
-207 -26 0
-207 26 206 0
-207 206 0
-208 -27 207 0
-208 27 0
-208 207 0
-209 -28 208 0
-209 28 0
-209 208 0
-210 -29 209 0
-210 29 0
-210 209 0
-211 -30 210 0
-211 30 0
-211 210 0
-212 -31 205 0
-212 31 211 0
-212 205 211 0
-213 -32 0
-213 32 212 0
-213 212 0
-214 -26 206 0
-214 26 0
-214 206 0
-215 -27 214 0
-215 27 0
-215 214 0
-216 -28 215 0
-216 28 0
-216 215 0
-217 -29 216 0
-217 29 0
-217 216 0
-218 -30 0
-218 30 217 0
-218 217 0
-219 -31 218 0
-219 31 0
-219 218 0
-220 -32 219 0
-220 32 0
-220 219 0
-221 -33 213 0
-221 33 220 0
-221 213 220 0
-222 -34 201 0
-222 34 221 0
-222 201 221 0
-223 -35 0
-223 35 222 0
-223 222 0
-224 -28 0
-224 28 208 0
-224 208 0
-225 -29 0
-225 29 224 0
-225 224 0
-226 -30 0
-226 30 225 0
-226 225 0
-227 -31 0
-227 31 226 0
-227 226 0
-228 -32 0
-228 32 227 0
-228 227 0
-229 -27 0
-229 27 207 0
-229 207 0
-230 -28 229 0
-230 28 0
-230 229 0
-231 -29 230 0
-231 29 0
-231 230 0
-232 -30 0
-232 30 231 0
-232 231 0
-233 -30 217 0
-233 30 0
-233 217 0
-234 -31 232 0
-234 31 233 0
-234 232 233 0
-235 -32 0
-235 32 234 0
-235 234 0
-236 -33 228 0
-236 33 235 0
-236 228 235 0
-237 -27 0
-237 27 214 0
-237 214 0
-238 -28 237 0
-238 28 0
-238 237 0
-239 -29 238 0
-239 29 0
-239 238 0
-240 -30 225 0
-240 30 239 0
-240 225 239 0
-241 -31 0
-241 31 240 0
-241 240 0
-242 -26 0
-242 26 -25 0
-242 -25 0
-243 -27 0
-243 27 242 0
-243 242 0
-244 -28 0
-244 28 243 0
-244 243 0
-245 -27 242 0
-245 27 0
-245 242 0
-246 -28 245 0
-246 28 0
-246 245 0
-247 -29 244 0
-247 29 246 0
-247 244 246 0
-248 -30 247 0
-248 30 0
-248 247 0
-249 -31 248 0
-249 31 0
-249 248 0
-250 -32 241 0
-250 32 249 0
-250 241 249 0
-251 -30 231 0
-251 30 0
-251 231 0
-252 -31 251 0
-252 31 0
-252 251 0
-253 -32 252 0
-253 32 0
-253 252 0
-254 -33 250 0
-254 33 253 0
-254 250 253 0
-255 -34 236 0
-255 34 254 0
-255 236 254 0
-256 -30 239 0
-256 30 0
-256 239 0
-257 -31 256 0
-257 31 0
-257 256 0
-258 -32 0
-258 32 257 0
-258 257 0
-259 -33 258 0
-259 33 0
-259 258 0
-260 -34 259 0
-260 34 0
-260 259 0
-261 -35 255 0
-261 35 260 0
-261 255 260 0
-262 -36 223 0
-262 36 261 0
-262 223 261 0
262 0
263 0
-264 -14 0
-264 14 -13 0
-264 -13 0
-265 -15 0
-265 15 264 0
-265 264 0
-266 -16 0
-266 16 265 0
-266 265 0
-267 -17 0
-267 17 266 0
-267 266 0
-268 -18 0
-268 18 267 0
-268 267 0
-269 13 0
-270 -14 -13 0
-270 14 269 0
-270 -13 269 0
-271 -15 264 0
-271 15 270 0
-271 264 270 0
-272 -16 265 0
-272 16 271 0
-272 265 271 0
-273 -17 266 0
-273 17 272 0
-273 266 272 0
-274 -18 267 0
-274 18 273 0
-274 267 273 0
-275 -19 268 0
-275 19 274 0
-275 268 274 0
-276 -14 269 0
-276 14 0
-276 269 0
-277 -15 270 0
-277 15 276 0
-277 270 276 0
-278 -16 271 0
-278 16 277 0
-278 271 277 0
-279 -17 272 0
-279 17 278 0
-279 272 278 0
-280 -18 273 0
-280 18 279 0
-280 273 279 0
-281 -19 274 0
-281 19 280 0
-281 274 280 0
-282 -20 275 0
-282 20 281 0
-282 275 281 0
-283 -15 276 0
-283 15 0
-283 276 0
-284 -16 277 0
-284 16 283 0
-284 277 283 0
-285 -17 278 0
-285 17 284 0
-285 278 284 0
-286 -18 279 0
-286 18 285 0
-286 279 285 0
-287 -19 280 0
-287 19 286 0
-287 280 286 0
-288 -20 281 0
-288 20 287 0
-288 281 287 0
-289 -21 282 0
-289 21 288 0
-289 282 288 0
-290 -16 283 0
-290 16 0
-290 283 0
-291 -17 284 0
-291 17 290 0
-291 284 290 0
-292 -18 285 0
-292 18 291 0
-292 285 291 0
-293 -19 286 0
-293 19 292 0
-293 286 292 0
-294 -20 287 0
-294 20 293 0
-294 287 293 0
-295 -21 288 0
-295 21 294 0
-295 288 294 0
-296 -22 289 0
-296 22 295 0
-296 289 295 0
-297 -17 290 0
-297 17 0
-297 290 0
-298 -18 291 0
-298 18 297 0
-298 291 297 0
-299 -19 292 0
-299 19 298 0
-299 292 298 0
-300 -20 293 0
-300 20 299 0
-300 293 299 0
-301 -21 294 0
-301 21 300 0
-301 294 300 0
-302 -22 295 0
-302 22 301 0
-302 295 301 0
-303 -23 296 0
-303 23 302 0
-303 296 302 0
-304 -18 297 0
-304 18 0
-304 297 0
-305 -19 298 0
-305 19 304 0
-305 298 304 0
-306 -20 299 0
-306 20 305 0
-306 299 305 0
-307 -21 300 0
-307 21 306 0
-307 300 306 0
-308 -22 301 0
-308 22 307 0
-308 301 307 0
-309 -23 302 0
-309 23 308 0
-309 302 308 0
-310 -24 303 0
-310 24 309 0
-310 303 309 0
310 0
311 0
-312 -14 0
-312 14 -13 0
-312 -13 0
-313 -15 0
-313 15 312 0
-313 312 0
-314 -16 0
-314 16 313 0
-314 313 0
-315 13 0
-316 -14 0
-316 14 315 0
-316 315 0
-317 -15 0
-317 15 316 0
-317 316 0
-318 -14 -13 0
-318 14 0
-318 -13 0
-319 -15 318 0
-319 15 0
-319 318 0
-320 -16 317 0
-320 16 319 0
-320 317 319 0
-321 -17 314 0
-321 17 320 0
-321 314 320 0
-322 -18 0
-322 18 321 0
-322 321 0
-323 -19 0
-323 19 322 0
-323 322 0
-324 -20 0
-324 20 323 0
-324 323 0
-325 -21 0
-325 21 324 0
-325 324 0
-326 -17 0
-326 17 314 0
-326 314 0
-327 -16 0
-327 16 317 0
-327 317 0
-328 -15 0
-328 15 318 0
-328 318 0
-329 -14 315 0
-329 14 0
-329 315 0
-330 -15 329 0
-330 15 0
-330 329 0
-331 -16 328 0
-331 16 330 0
-331 328 330 0
-332 -17 327 0
-332 17 331 0
-332 327 331 0
-333 -18 326 0
-333 18 332 0
-333 326 332 0
-334 -19 0
-334 19 333 0
-334 333 0
-335 -20 0
-335 20 334 0
-335 334 0
-336 -18 0
-336 18 326 0
-336 326 0
-337 -17 0
-337 17 327 0
-337 327 0
-338 -16 0
-338 16 328 0
-338 328 0
-339 -15 312 0
-339 15 329 0
-339 312 329 0
-340 -16 339 0
-340 16 0
-340 339 0
-341 -17 338 0
-341 17 340 0
-341 338 340 0
-342 -18 337 0
-342 18 341 0
-342 337 341 0
-343 -19 336 0
-343 19 342 0
-343 336 342 0
-344 -17 0
-344 17 338 0
-344 338 0
-345 -16 0
-345 16 339 0
-345 339 0
-346 -15 316 0
-346 15 0
-346 316 0
-347 -16 346 0
-347 16 0
-347 346 0
-348 -17 345 0
-348 17 347 0
-348 345 347 0
-349 -18 344 0
-349 18 348 0
-349 344 348 0
-350 -16 313 0
-350 16 346 0
-350 313 346 0
-351 -16 319 0
-351 16 0
-351 319 0
-352 -17 350 0
-352 17 351 0
-352 350 351 0
-353 -16 330 0
-353 16 0
-353 330 0
-354 -17 353 0
-354 17 0
-354 353 0
-355 -18 352 0
-355 18 354 0
-355 352 354 0
-356 -19 349 0
-356 19 355 0
-356 349 355 0
-357 -20 343 0
-357 20 356 0
-357 343 356 0
-358 -21 335 0
-358 21 357 0
-358 335 357 0
-359 -22 325 0
-359 22 358 0
-359 325 358 0
-360 -20 0
-360 20 343 0
-360 343 0
-361 -18 0
-361 18 337 0
-361 337 0
-362 -19 361 0
-362 19 349 0
-362 361 349 0
-363 -17 0
-363 17 345 0
-363 345 0
-364 -18 363 0
-364 18 352 0
-364 363 352 0
-365 -17 320 0
-365 17 353 0
-365 320 353 0
-366 -18 365 0
-366 18 0
-366 365 0
-367 -19 364 0
-367 19 366 0
-367 364 366 0
-368 -20 362 0
-368 20 367 0
-368 362 367 0
-369 -21 360 0
-369 21 368 0
-369 360 368 0
-370 -18 0
-370 18 344 0
-370 344 0
-371 -19 370 0
-371 19 364 0
-371 370 364 0
-372 -17 0
-372 17 350 0
-372 350 0
-373 -18 372 0
-373 18 365 0
-373 372 365 0
-374 -17 331 0
-374 17 0
-374 331 0
-375 -18 374 0
-375 18 0
-375 374 0
-376 -19 373 0
-376 19 375 0
-376 373 375 0
-377 -20 371 0
-377 20 376 0
-377 371 376 0
-378 -18 321 0
-378 18 374 0
-378 321 374 0
-379 -17 340 0
-379 17 0
-379 340 0
-380 -18 379 0
-380 18 0
-380 379 0
-381 -19 378 0
-381 19 380 0
-381 378 380 0
-382 -17 347 0
-382 17 0
-382 347 0
-383 -18 382 0
-383 18 0
-383 382 0
-384 -19 383 0
-384 19 0
-384 383 0
-385 -20 381 0
-385 20 384 0
-385 381 384 0
-386 -21 377 0
-386 21 385 0
-386 377 385 0
-387 -22 369 0
-387 22 386 0
-387 369 386 0
-388 -23 359 0
-388 23 387 0
-388 359 387 0
-389 -19 0
-389 19 336 0
-389 336 0
-390 -20 389 0
-390 20 362 0
-390 389 362 0
-391 -21 390 0
-391 21 377 0
-391 390 377 0
-392 -18 0
-392 18 363 0
-392 363 0
-393 -19 392 0
-393 19 373 0
-393 392 373 0
-394 -20 393 0
-394 20 381 0
-394 393 381 0
-395 -18 332 0
-395 18 379 0
-395 332 379 0
-396 -19 395 0
-396 19 383 0
-396 395 383 0
-397 -17 351 0
-397 17 0
-397 351 0
-398 -18 397 0
-398 18 0
-398 397 0
-399 -19 398 0
-399 19 0
-399 398 0
-400 -20 396 0
-400 20 399 0
-400 396 399 0
-401 -21 394 0
-401 21 400 0
-401 394 400 0
-402 -22 391 0
-402 22 401 0
-402 391 401 0
-403 -18 0
-403 18 372 0
-403 372 0
-404 -19 403 0
-404 19 378 0
-404 403 378 0
-405 -20 404 0
-405 20 396 0
-405 404 396 0
-406 -18 341 0
-406 18 382 0
-406 341 382 0
-407 -19 406 0
-407 19 398 0
-407 406 398 0
-408 -18 354 0
-408 18 0
-408 354 0
-409 -19 408 0
-409 19 0
-409 408 0
-410 -20 407 0
-410 20 409 0
-410 407 409 0
-411 -21 405 0
-411 21 410 0
-411 405 410 0
-412 -18 348 0
-412 18 397 0
-412 348 397 0
-413 -19 412 0
-413 19 408 0
-413 412 408 0
-414 -20 413 0
-414 20 0
-414 413 0
-415 -21 414 0
-415 21 0
-415 414 0
-416 -22 411 0
-416 22 415 0
-416 411 415 0
-417 -23 402 0
-417 23 416 0
-417 402 416 0
-418 -24 388 0
-418 24 417 0
-418 388 417 0
418 0
13 25 419 0
-419 -13 0
-419 -25 0
14 26 420 0
-420 -14 0
-420 -26 0
15 27 421 0
-421 -15 0
-421 -27 0
16 28 422 0
-422 -16 0
-422 -28 0
17 29 423 0
-423 -17 0
-423 -29 0
18 30 424 0
-424 -18 0
-424 -30 0
19 31 425 0
-425 -19 0
-425 -31 0
20 32 426 0
-426 -20 0
-426 -32 0
21 33 427 0
-427 -21 0
-427 -33 0
22 34 428 0
-428 -22 0
-428 -34 0
23 35 429 0
-429 -23 0
-429 -35 0
24 36 430 0
-430 -24 0
-430 -36 0
13 -25 463 0
-463 -13 0
-463 25 0
14 -26 464 0
-464 -14 0
-464 26 0
15 -27 465 0
-465 -15 0
-465 27 0
16 -28 466 0
-466 -16 0
-466 28 0
17 -29 467 0
-467 -17 0
-467 29 0
18 -30 468 0
-468 -18 0
-468 30 0
19 -31 469 0
-469 -19 0
-469 31 0
20 -32 470 0
-470 -20 0
-470 32 0
21 -33 471 0
-471 -21 0
-471 33 0
22 -34 472 0
-472 -22 0
-472 34 0
23 -35 473 0
-473 -23 0
-473 35 0
24 -36 474 0
-474 -24 0
-474 36 0
-13 25 519 0
-519 13 0
-519 -25 0
-14 26 520 0
-520 14 0
-520 -26 0
-15 27 521 0
-521 15 0
-521 -27 0
-16 28 522 0
-522 16 0
-522 -28 0
-17 29 523 0
-523 17 0
-523 -29 0
-18 30 524 0
-524 18 0
-524 -30 0
-19 31 525 0
-525 19 0
-525 -31 0
-20 32 526 0
-526 20 0
-526 -32 0
-21 33 527 0
-527 21 0
-527 -33 0
-22 34 528 0
-528 22 0
-528 -34 0
-23 35 529 0
-529 23 0
-529 -35 0
-24 36 530 0
-530 24 0
-530 -36 0
-13 -25 575 0
-575 13 0
-575 25 0
-14 -26 576 0
-576 14 0
-576 26 0
-15 -27 577 0
-577 15 0
-577 27 0
-16 -28 578 0
-578 16 0
-578 28 0
-17 -29 579 0
-579 17 0
-579 29 0
-18 -30 580 0
-580 18 0
-580 30 0
-19 -31 581 0
-581 19 0
-581 31 0
-20 -32 582 0
-582 20 0
-582 32 0
-21 -33 583 0
-583 21 0
-583 33 0
-22 -34 584 0
-584 22 0
-584 34 0
-23 -35 585 0
-585 23 0
-585 35 0
-24 -36 586 0
-586 24 0
-586 36 0
431 0
-432 -420 0
-432 420 -419 0
-432 -419 0
-433 -421 0
-433 421 432 0
-433 432 0
-434 -422 0
-434 422 433 0
-434 433 0
-435 -423 0
-435 423 434 0
-435 434 0
-436 -424 0
-436 424 435 0
-436 435 0
-437 -425 0
-437 425 436 0
-437 436 0
-438 -426 0
-438 426 437 0
-438 437 0
-439 -427 0
-439 427 438 0
-439 438 0
-440 -428 0
-440 428 439 0
-440 439 0
-441 419 0
-442 -420 -419 0
-442 420 441 0
-442 -419 441 0
-443 -421 432 0
-443 421 442 0
-443 432 442 0
-444 -422 433 0
-444 422 443 0
-444 433 443 0
-445 -423 434 0
-445 423 444 0
-445 434 444 0
-446 -424 435 0
-446 424 445 0
-446 435 445 0
-447 -425 436 0
-447 425 446 0
-447 436 446 0
-448 -426 437 0
-448 426 447 0
-448 437 447 0
-449 -427 438 0
-449 427 448 0
-449 438 448 0
-450 -428 439 0
-450 428 449 0
-450 439 449 0
-451 -429 440 0
-451 429 450 0
-451 440 450 0
-452 -420 441 0
-452 420 0
-452 441 0
-453 -421 442 0
-453 421 452 0
-453 442 452 0
-454 -422 443 0
-454 422 453 0
-454 443 453 0
-455 -423 444 0
-455 423 454 0
-455 444 454 0
-456 -424 445 0
-456 424 455 0
-456 445 455 0
-457 -425 446 0
-457 425 456 0
-457 446 456 0
-458 -426 447 0
-458 426 457 0
-458 447 457 0
-459 -427 448 0
-459 427 458 0
-459 448 458 0
-460 -428 449 0
-460 428 459 0
-460 449 459 0
-461 -429 450 0
-461 429 460 0
-461 450 460 0
-462 -430 451 0
-462 430 461 0
-462 451 461 0
462 0
475 0
-476 -464 0
-476 464 -463 0
-476 -463 0
-477 -465 0
-477 465 476 0
-477 476 0
-478 -466 0
-478 466 477 0
-478 477 0
-479 -467 0
-479 467 478 0
-479 478 0
-480 -468 0
-480 468 479 0
-480 479 0
-481 -469 0
-481 469 480 0
-481 480 0
-482 -470 0
-482 470 481 0
-482 481 0
-483 463 0
-484 -464 -463 0
-484 464 483 0
-484 -463 483 0
-485 -465 476 0
-485 465 484 0
-485 476 484 0
-486 -466 477 0
-486 466 485 0
-486 477 485 0
-487 -467 478 0
-487 467 486 0
-487 478 486 0
-488 -468 479 0
-488 468 487 0
-488 479 487 0
-489 -469 480 0
-489 469 488 0
-489 480 488 0
-490 -470 481 0
-490 470 489 0
-490 481 489 0
-491 -471 482 0
-491 471 490 0
-491 482 490 0
-492 -464 483 0
-492 464 0
-492 483 0
-493 -465 484 0
-493 465 492 0
-493 484 492 0
-494 -466 485 0
-494 466 493 0
-494 485 493 0
-495 -467 486 0
-495 467 494 0
-495 486 494 0
-496 -468 487 0
-496 468 495 0
-496 487 495 0
-497 -469 488 0
-497 469 496 0
-497 488 496 0
-498 -470 489 0
-498 470 497 0
-498 489 497 0
-499 -471 490 0
-499 471 498 0
-499 490 498 0
-500 -472 491 0
-500 472 499 0
-500 491 499 0
-501 -465 492 0
-501 465 0
-501 492 0
-502 -466 493 0
-502 466 501 0
-502 493 501 0
-503 -467 494 0
-503 467 502 0
-503 494 502 0
-504 -468 495 0
-504 468 503 0
-504 495 503 0
-505 -469 496 0
-505 469 504 0
-505 496 504 0
-506 -470 497 0
-506 470 505 0
-506 497 505 0
-507 -471 498 0
-507 471 506 0
-507 498 506 0
-508 -472 499 0
-508 472 507 0
-508 499 507 0
-509 -473 500 0
-509 473 508 0
-509 500 508 0
-510 -466 501 0
-510 466 0
-510 501 0
-511 -467 502 0
-511 467 510 0
-511 502 510 0
-512 -468 503 0
-512 468 511 0
-512 503 511 0
-513 -469 504 0
-513 469 512 0
-513 504 512 0
-514 -470 505 0
-514 470 513 0
-514 505 513 0
-515 -471 506 0
-515 471 514 0
-515 506 514 0
-516 -472 507 0
-516 472 515 0
-516 507 515 0
-517 -473 508 0
-517 473 516 0
-517 508 516 0
-518 -474 509 0
-518 474 517 0
-518 509 517 0
518 0
531 0
-532 -520 0
-532 520 -519 0
-532 -519 0
-533 -521 0
-533 521 532 0
-533 532 0
-534 -522 0
-534 522 533 0
-534 533 0
-535 -523 0
-535 523 534 0
-535 534 0
-536 -524 0
-536 524 535 0
-536 535 0
-537 -525 0
-537 525 536 0
-537 536 0
-538 -526 0
-538 526 537 0
-538 537 0
-539 519 0
-540 -520 -519 0
-540 520 539 0
-540 -519 539 0
-541 -521 532 0
-541 521 540 0
-541 532 540 0
-542 -522 533 0
-542 522 541 0
-542 533 541 0
-543 -523 534 0
-543 523 542 0
-543 534 542 0
-544 -524 535 0
-544 524 543 0
-544 535 543 0
-545 -525 536 0
-545 525 544 0
-545 536 544 0
-546 -526 537 0
-546 526 545 0
-546 537 545 0
-547 -527 538 0
-547 527 546 0
-547 538 546 0
-548 -520 539 0
-548 520 0
-548 539 0
-549 -521 540 0
-549 521 548 0
-549 540 548 0
-550 -522 541 0
-550 522 549 0
-550 541 549 0
-551 -523 542 0
-551 523 550 0
-551 542 550 0
-552 -524 543 0
-552 524 551 0
-552 543 551 0
-553 -525 544 0
-553 525 552 0
-553 544 552 0
-554 -526 545 0
-554 526 553 0
-554 545 553 0
-555 -527 546 0
-555 527 554 0
-555 546 554 0
-556 -528 547 0
-556 528 555 0
-556 547 555 0
-557 -521 548 0
-557 521 0
-557 548 0
-558 -522 549 0
-558 522 557 0
-558 549 557 0
-559 -523 550 0
-559 523 558 0
-559 550 558 0
-560 -524 551 0
-560 524 559 0
-560 551 559 0
-561 -525 552 0
-561 525 560 0
-561 552 560 0
-562 -526 553 0
-562 526 561 0
-562 553 561 0
-563 -527 554 0
-563 527 562 0
-563 554 562 0
-564 -528 555 0
-564 528 563 0
-564 555 563 0
-565 -529 556 0
-565 529 564 0
-565 556 564 0
-566 -522 557 0
-566 522 0
-566 557 0
-567 -523 558 0
-567 523 566 0
-567 558 566 0
-568 -524 559 0
-568 524 567 0
-568 559 567 0
-569 -525 560 0
-569 525 568 0
-569 560 568 0
-570 -526 561 0
-570 526 569 0
-570 561 569 0
-571 -527 562 0
-571 527 570 0
-571 562 570 0
-572 -528 563 0
-572 528 571 0
-572 563 571 0
-573 -529 564 0
-573 529 572 0
-573 564 572 0
-574 -530 565 0
-574 530 573 0
-574 565 573 0
574 0
587 0
-588 -576 0
-588 576 -575 0
-588 -575 0
-589 -577 0
-589 577 588 0
-589 588 0
-590 -578 0
-590 578 589 0
-590 589 0
-591 -579 0
-591 579 590 0
-591 590 0
-592 -580 0
-592 580 591 0
-592 591 0
-593 -581 0
-593 581 592 0
-593 592 0
-594 -582 0
-594 582 593 0
-594 593 0
-595 -583 0
-595 583 594 0
-595 594 0
-596 -584 0
-596 584 595 0
-596 595 0
-597 575 0
-598 -576 -575 0
-598 576 597 0
-598 -575 597 0
-599 -577 588 0
-599 577 598 0
-599 588 598 0
-600 -578 589 0
-600 578 599 0
-600 589 599 0
-601 -579 590 0
-601 579 600 0
-601 590 600 0
-602 -580 591 0
-602 580 601 0
-602 591 601 0
-603 -581 592 0
-603 581 602 0
-603 592 602 0
-604 -582 593 0
-604 582 603 0
-604 593 603 0
-605 -583 594 0
-605 583 604 0
-605 594 604 0
-606 -584 595 0
-606 584 605 0
-606 595 605 0
-607 -585 596 0
-607 585 606 0
-607 596 606 0
-608 -576 597 0
-608 576 0
-608 597 0
-609 -577 598 0
-609 577 608 0
-609 598 608 0
-610 -578 599 0
-610 578 609 0
-610 599 609 0
-611 -579 600 0
-611 579 610 0
-611 600 610 0
-612 -580 601 0
-612 580 611 0
-612 601 611 0
-613 -581 602 0
-613 581 612 0
-613 602 612 0
-614 -582 603 0
-614 582 613 0
-614 603 613 0
-615 -583 604 0
-615 583 614 0
-615 604 614 0
-616 -584 605 0
-616 584 615 0
-616 605 615 0
-617 -585 606 0
-617 585 616 0
-617 606 616 0
-618 -586 607 0
-618 586 617 0
-618 607 617 0
618 0
619 0
-620 -2 0
-620 2 -1 0
-620 -1 0
-621 -3 0
-621 3 620 0
-621 620 0
-622 -4 0
-622 4 621 0
-622 621 0
-623 -5 0
-623 5 622 0
-623 622 0
-624 -6 0
-624 6 623 0
-624 623 0
-625 1 0
-626 -2 -1 0
-626 2 625 0
-626 -1 625 0
-627 -3 620 0
-627 3 626 0
-627 620 626 0
-628 -4 621 0
-628 4 627 0
-628 621 627 0
-629 -5 622 0
-629 5 628 0
-629 622 628 0
-630 -6 623 0
-630 6 629 0
-630 623 629 0
-631 -7 624 0
-631 7 630 0
-631 624 630 0
-632 -2 625 0
-632 2 0
-632 625 0
-633 -3 626 0
-633 3 632 0
-633 626 632 0
-634 -4 627 0
-634 4 633 0
-634 627 633 0
-635 -5 628 0
-635 5 634 0
-635 628 634 0
-636 -6 629 0
-636 6 635 0
-636 629 635 0
-637 -7 630 0
-637 7 636 0
-637 630 636 0
-638 -8 631 0
-638 8 637 0
-638 631 637 0
-639 -3 632 0
-639 3 0
-639 632 0
-640 -4 633 0
-640 4 639 0
-640 633 639 0
-641 -5 634 0
-641 5 640 0
-641 634 640 0
-642 -6 635 0
-642 6 641 0
-642 635 641 0
-643 -7 636 0
-643 7 642 0
-643 636 642 0
-644 -8 637 0
-644 8 643 0
-644 637 643 0
-645 -9 638 0
-645 9 644 0
-645 638 644 0
-646 -4 639 0
-646 4 0
-646 639 0
-647 -5 640 0
-647 5 646 0
-647 640 646 0
-648 -6 641 0
-648 6 647 0
-648 641 647 0
-649 -7 642 0
-649 7 648 0
-649 642 648 0
-650 -8 643 0
-650 8 649 0
-650 643 649 0
-651 -9 644 0
-651 9 650 0
-651 644 650 0
-652 -10 645 0
-652 10 651 0
-652 645 651 0
-653 -5 646 0
-653 5 0
-653 646 0
-654 -6 647 0
-654 6 653 0
-654 647 653 0
-655 -7 648 0
-655 7 654 0
-655 648 654 0
-656 -8 649 0
-656 8 655 0
-656 649 655 0
-657 -9 650 0
-657 9 656 0
-657 650 656 0
-658 -10 651 0
-658 10 657 0
-658 651 657 0
-659 -11 652 0
-659 11 658 0
-659 652 658 0
-660 -6 653 0
-660 6 0
-660 653 0
-661 -7 654 0
-661 7 660 0
-661 654 660 0
-662 -8 655 0
-662 8 661 0
-662 655 661 0
-663 -9 656 0
-663 9 662 0
-663 656 662 0
-664 -10 657 0
-664 10 663 0
-664 657 663 0
-665 -11 658 0
-665 11 664 0
-665 658 664 0
-666 -12 659 0
-666 12 665 0
-666 659 665 0
666 0
